p td 22 186
2 1
3 1
4 3
5 1
5 2
5 4
5 3
6 5
6 3
6 2
6 1
6 4
7 3
7 4
7 2
7 5
8 3
8 6
8 7
8 2
8 5
9 1
9 7
9 6
9 4
9 2
9 3
9 8
9 5
10 4
10 1
10 5
10 6
10 3
10 2
10 8
10 7
11 10
11 8
11 6
11 7
11 1
12 11
12 3
12 5
12 1
12 4
12 8
12 9
12 6
12 2
13 9
13 10
13 12
13 8
13 3
13 1
13 5
13 2
14 7
14 11
14 12
14 5
14 9
14 6
14 13
14 10
14 1
14 4
14 8
14 3
15 7
15 3
15 9
15 6
15 4
15 8
15 12
15 5
15 11
15 14
15 13
16 8
16 1
16 4
16 2
16 15
16 11
16 13
16 7
16 12
16 6
16 3
16 10
16 14
16 5
17 7
17 16
17 6
17 4
17 8
17 12
17 5
17 3
17 9
17 10
17 15
17 13
18 7
18 16
18 8
18 17
18 14
18 1
18 6
18 10
18 12
18 15
18 9
18 11
18 13
19 15
19 8
19 6
19 9
19 18
19 5
19 10
19 12
19 3
19 16
19 2
19 7
19 11
19 13
20 7
20 10
20 5
20 4
20 15
20 3
20 11
20 13
20 9
20 14
20 1
20 17
20 19
20 6
20 2
20 16
20 18
20 12
21 8
21 10
21 13
21 19
21 4
21 17
21 12
21 18
21 5
21 9
21 2
21 1
21 14
21 20
21 16
21 6
22 5
22 13
22 20
22 4
22 15
22 2
22 19
22 6
22 17
22 12
22 8
22 21
22 9
22 16
22 14
22 7
22 11
